768
768-atom benzene cluster used in DFTB+ MPI benchmark
C 1.39700000 0.00000000 0.00000000
C 0.69850000 1.20983749 0.00000000
C -0.69850000 1.20983749 0.00000000
C -1.39700000 0.00000000 0.00000000
C -0.69850000 -1.20983749 0.00000000
C 0.69850000 -1.20983749 0.00000000
H 2.48700000 0.00000000 0.00000000
H 1.24350000 2.15380518 0.00000000
H -1.24350000 2.15380518 0.00000000
H -2.48700000 0.00000000 0.00000000
H -1.24350000 -2.15380518 0.00000000
H 1.24350000 -2.15380518 0.00000000
C 1.39700000 0.00000000 6.00000000
C 0.69850000 1.20983749 6.00000000
C -0.69850000 1.20983749 6.00000000
C -1.39700000 0.00000000 6.00000000
C -0.69850000 -1.20983749 6.00000000
C 0.69850000 -1.20983749 6.00000000
H 2.48700000 0.00000000 6.00000000
H 1.24350000 2.15380518 6.00000000
H -1.24350000 2.15380518 6.00000000
H -2.48700000 0.00000000 6.00000000
H -1.24350000 -2.15380518 6.00000000
H 1.24350000 -2.15380518 6.00000000
C 1.39700000 0.00000000 12.00000000
C 0.69850000 1.20983749 12.00000000
C -0.69850000 1.20983749 12.00000000
C -1.39700000 0.00000000 12.00000000
C -0.69850000 -1.20983749 12.00000000
C 0.69850000 -1.20983749 12.00000000
H 2.48700000 0.00000000 12.00000000
H 1.24350000 2.15380518 12.00000000
H -1.24350000 2.15380518 12.00000000
H -2.48700000 0.00000000 12.00000000
H -1.24350000 -2.15380518 12.00000000
H 1.24350000 -2.15380518 12.00000000
C 1.39700000 0.00000000 18.00000000
C 0.69850000 1.20983749 18.00000000
C -0.69850000 1.20983749 18.00000000
C -1.39700000 0.00000000 18.00000000
C -0.69850000 -1.20983749 18.00000000
C 0.69850000 -1.20983749 18.00000000
H 2.48700000 0.00000000 18.00000000
H 1.24350000 2.15380518 18.00000000
H -1.24350000 2.15380518 18.00000000
H -2.48700000 0.00000000 18.00000000
H -1.24350000 -2.15380518 18.00000000
H 1.24350000 -2.15380518 18.00000000
C 1.39700000 6.00000000 0.00000000
C 0.69850000 7.20983749 0.00000000
C -0.69850000 7.20983749 0.00000000
C -1.39700000 6.00000000 0.00000000
C -0.69850000 4.79016251 0.00000000
C 0.69850000 4.79016251 0.00000000
H 2.48700000 6.00000000 0.00000000
H 1.24350000 8.15380518 0.00000000
H -1.24350000 8.15380518 0.00000000
H -2.48700000 6.00000000 0.00000000
H -1.24350000 3.84619482 0.00000000
H 1.24350000 3.84619482 0.00000000
C 1.39700000 6.00000000 6.00000000
C 0.69850000 7.20983749 6.00000000
C -0.69850000 7.20983749 6.00000000
C -1.39700000 6.00000000 6.00000000
C -0.69850000 4.79016251 6.00000000
C 0.69850000 4.79016251 6.00000000
H 2.48700000 6.00000000 6.00000000
H 1.24350000 8.15380518 6.00000000
H -1.24350000 8.15380518 6.00000000
H -2.48700000 6.00000000 6.00000000
H -1.24350000 3.84619482 6.00000000
H 1.24350000 3.84619482 6.00000000
C 1.39700000 6.00000000 12.00000000
C 0.69850000 7.20983749 12.00000000
C -0.69850000 7.20983749 12.00000000
C -1.39700000 6.00000000 12.00000000
C -0.69850000 4.79016251 12.00000000
C 0.69850000 4.79016251 12.00000000
H 2.48700000 6.00000000 12.00000000
H 1.24350000 8.15380518 12.00000000
H -1.24350000 8.15380518 12.00000000
H -2.48700000 6.00000000 12.00000000
H -1.24350000 3.84619482 12.00000000
H 1.24350000 3.84619482 12.00000000
C 1.39700000 6.00000000 18.00000000
C 0.69850000 7.20983749 18.00000000
C -0.69850000 7.20983749 18.00000000
C -1.39700000 6.00000000 18.00000000
C -0.69850000 4.79016251 18.00000000
C 0.69850000 4.79016251 18.00000000
H 2.48700000 6.00000000 18.00000000
H 1.24350000 8.15380518 18.00000000
H -1.24350000 8.15380518 18.00000000
H -2.48700000 6.00000000 18.00000000
H -1.24350000 3.84619482 18.00000000
H 1.24350000 3.84619482 18.00000000
C 1.39700000 12.00000000 0.00000000
C 0.69850000 13.20983749 0.00000000
C -0.69850000 13.20983749 0.00000000
C -1.39700000 12.00000000 0.00000000
C -0.69850000 10.79016251 0.00000000
C 0.69850000 10.79016251 0.00000000
H 2.48700000 12.00000000 0.00000000
H 1.24350000 14.15380518 0.00000000
H -1.24350000 14.15380518 0.00000000
H -2.48700000 12.00000000 0.00000000
H -1.24350000 9.84619482 0.00000000
H 1.24350000 9.84619482 0.00000000
C 1.39700000 12.00000000 6.00000000
C 0.69850000 13.20983749 6.00000000
C -0.69850000 13.20983749 6.00000000
C -1.39700000 12.00000000 6.00000000
C -0.69850000 10.79016251 6.00000000
C 0.69850000 10.79016251 6.00000000
H 2.48700000 12.00000000 6.00000000
H 1.24350000 14.15380518 6.00000000
H -1.24350000 14.15380518 6.00000000
H -2.48700000 12.00000000 6.00000000
H -1.24350000 9.84619482 6.00000000
H 1.24350000 9.84619482 6.00000000
C 1.39700000 12.00000000 12.00000000
C 0.69850000 13.20983749 12.00000000
C -0.69850000 13.20983749 12.00000000
C -1.39700000 12.00000000 12.00000000
C -0.69850000 10.79016251 12.00000000
C 0.69850000 10.79016251 12.00000000
H 2.48700000 12.00000000 12.00000000
H 1.24350000 14.15380518 12.00000000
H -1.24350000 14.15380518 12.00000000
H -2.48700000 12.00000000 12.00000000
H -1.24350000 9.84619482 12.00000000
H 1.24350000 9.84619482 12.00000000
C 1.39700000 12.00000000 18.00000000
C 0.69850000 13.20983749 18.00000000
C -0.69850000 13.20983749 18.00000000
C -1.39700000 12.00000000 18.00000000
C -0.69850000 10.79016251 18.00000000
C 0.69850000 10.79016251 18.00000000
H 2.48700000 12.00000000 18.00000000
H 1.24350000 14.15380518 18.00000000
H -1.24350000 14.15380518 18.00000000
H -2.48700000 12.00000000 18.00000000
H -1.24350000 9.84619482 18.00000000
H 1.24350000 9.84619482 18.00000000
C 1.39700000 18.00000000 0.00000000
C 0.69850000 19.20983749 0.00000000
C -0.69850000 19.20983749 0.00000000
C -1.39700000 18.00000000 0.00000000
C -0.69850000 16.79016251 0.00000000
C 0.69850000 16.79016251 0.00000000
H 2.48700000 18.00000000 0.00000000
H 1.24350000 20.15380518 0.00000000
H -1.24350000 20.15380518 0.00000000
H -2.48700000 18.00000000 0.00000000
H -1.24350000 15.84619482 0.00000000
H 1.24350000 15.84619482 0.00000000
C 1.39700000 18.00000000 6.00000000
C 0.69850000 19.20983749 6.00000000
C -0.69850000 19.20983749 6.00000000
C -1.39700000 18.00000000 6.00000000
C -0.69850000 16.79016251 6.00000000
C 0.69850000 16.79016251 6.00000000
H 2.48700000 18.00000000 6.00000000
H 1.24350000 20.15380518 6.00000000
H -1.24350000 20.15380518 6.00000000
H -2.48700000 18.00000000 6.00000000
H -1.24350000 15.84619482 6.00000000
H 1.24350000 15.84619482 6.00000000
C 1.39700000 18.00000000 12.00000000
C 0.69850000 19.20983749 12.00000000
C -0.69850000 19.20983749 12.00000000
C -1.39700000 18.00000000 12.00000000
C -0.69850000 16.79016251 12.00000000
C 0.69850000 16.79016251 12.00000000
H 2.48700000 18.00000000 12.00000000
H 1.24350000 20.15380518 12.00000000
H -1.24350000 20.15380518 12.00000000
H -2.48700000 18.00000000 12.00000000
H -1.24350000 15.84619482 12.00000000
H 1.24350000 15.84619482 12.00000000
C 1.39700000 18.00000000 18.00000000
C 0.69850000 19.20983749 18.00000000
C -0.69850000 19.20983749 18.00000000
C -1.39700000 18.00000000 18.00000000
C -0.69850000 16.79016251 18.00000000
C 0.69850000 16.79016251 18.00000000
H 2.48700000 18.00000000 18.00000000
H 1.24350000 20.15380518 18.00000000
H -1.24350000 20.15380518 18.00000000
H -2.48700000 18.00000000 18.00000000
H -1.24350000 15.84619482 18.00000000
H 1.24350000 15.84619482 18.00000000
C 7.39700000 0.00000000 0.00000000
C 6.69850000 1.20983749 0.00000000
C 5.30150000 1.20983749 0.00000000
C 4.60300000 0.00000000 0.00000000
C 5.30150000 -1.20983749 0.00000000
C 6.69850000 -1.20983749 0.00000000
H 8.48700000 0.00000000 0.00000000
H 7.24350000 2.15380518 0.00000000
H 4.75650000 2.15380518 0.00000000
H 3.51300000 0.00000000 0.00000000
H 4.75650000 -2.15380518 0.00000000
H 7.24350000 -2.15380518 0.00000000
C 7.39700000 0.00000000 6.00000000
C 6.69850000 1.20983749 6.00000000
C 5.30150000 1.20983749 6.00000000
C 4.60300000 0.00000000 6.00000000
C 5.30150000 -1.20983749 6.00000000
C 6.69850000 -1.20983749 6.00000000
H 8.48700000 0.00000000 6.00000000
H 7.24350000 2.15380518 6.00000000
H 4.75650000 2.15380518 6.00000000
H 3.51300000 0.00000000 6.00000000
H 4.75650000 -2.15380518 6.00000000
H 7.24350000 -2.15380518 6.00000000
C 7.39700000 0.00000000 12.00000000
C 6.69850000 1.20983749 12.00000000
C 5.30150000 1.20983749 12.00000000
C 4.60300000 0.00000000 12.00000000
C 5.30150000 -1.20983749 12.00000000
C 6.69850000 -1.20983749 12.00000000
H 8.48700000 0.00000000 12.00000000
H 7.24350000 2.15380518 12.00000000
H 4.75650000 2.15380518 12.00000000
H 3.51300000 0.00000000 12.00000000
H 4.75650000 -2.15380518 12.00000000
H 7.24350000 -2.15380518 12.00000000
C 7.39700000 0.00000000 18.00000000
C 6.69850000 1.20983749 18.00000000
C 5.30150000 1.20983749 18.00000000
C 4.60300000 0.00000000 18.00000000
C 5.30150000 -1.20983749 18.00000000
C 6.69850000 -1.20983749 18.00000000
H 8.48700000 0.00000000 18.00000000
H 7.24350000 2.15380518 18.00000000
H 4.75650000 2.15380518 18.00000000
H 3.51300000 0.00000000 18.00000000
H 4.75650000 -2.15380518 18.00000000
H 7.24350000 -2.15380518 18.00000000
C 7.39700000 6.00000000 0.00000000
C 6.69850000 7.20983749 0.00000000
C 5.30150000 7.20983749 0.00000000
C 4.60300000 6.00000000 0.00000000
C 5.30150000 4.79016251 0.00000000
C 6.69850000 4.79016251 0.00000000
H 8.48700000 6.00000000 0.00000000
H 7.24350000 8.15380518 0.00000000
H 4.75650000 8.15380518 0.00000000
H 3.51300000 6.00000000 0.00000000
H 4.75650000 3.84619482 0.00000000
H 7.24350000 3.84619482 0.00000000
C 7.39700000 6.00000000 6.00000000
C 6.69850000 7.20983749 6.00000000
C 5.30150000 7.20983749 6.00000000
C 4.60300000 6.00000000 6.00000000
C 5.30150000 4.79016251 6.00000000
C 6.69850000 4.79016251 6.00000000
H 8.48700000 6.00000000 6.00000000
H 7.24350000 8.15380518 6.00000000
H 4.75650000 8.15380518 6.00000000
H 3.51300000 6.00000000 6.00000000
H 4.75650000 3.84619482 6.00000000
H 7.24350000 3.84619482 6.00000000
C 7.39700000 6.00000000 12.00000000
C 6.69850000 7.20983749 12.00000000
C 5.30150000 7.20983749 12.00000000
C 4.60300000 6.00000000 12.00000000
C 5.30150000 4.79016251 12.00000000
C 6.69850000 4.79016251 12.00000000
H 8.48700000 6.00000000 12.00000000
H 7.24350000 8.15380518 12.00000000
H 4.75650000 8.15380518 12.00000000
H 3.51300000 6.00000000 12.00000000
H 4.75650000 3.84619482 12.00000000
H 7.24350000 3.84619482 12.00000000
C 7.39700000 6.00000000 18.00000000
C 6.69850000 7.20983749 18.00000000
C 5.30150000 7.20983749 18.00000000
C 4.60300000 6.00000000 18.00000000
C 5.30150000 4.79016251 18.00000000
C 6.69850000 4.79016251 18.00000000
H 8.48700000 6.00000000 18.00000000
H 7.24350000 8.15380518 18.00000000
H 4.75650000 8.15380518 18.00000000
H 3.51300000 6.00000000 18.00000000
H 4.75650000 3.84619482 18.00000000
H 7.24350000 3.84619482 18.00000000
C 7.39700000 12.00000000 0.00000000
C 6.69850000 13.20983749 0.00000000
C 5.30150000 13.20983749 0.00000000
C 4.60300000 12.00000000 0.00000000
C 5.30150000 10.79016251 0.00000000
C 6.69850000 10.79016251 0.00000000
H 8.48700000 12.00000000 0.00000000
H 7.24350000 14.15380518 0.00000000
H 4.75650000 14.15380518 0.00000000
H 3.51300000 12.00000000 0.00000000
H 4.75650000 9.84619482 0.00000000
H 7.24350000 9.84619482 0.00000000
C 7.39700000 12.00000000 6.00000000
C 6.69850000 13.20983749 6.00000000
C 5.30150000 13.20983749 6.00000000
C 4.60300000 12.00000000 6.00000000
C 5.30150000 10.79016251 6.00000000
C 6.69850000 10.79016251 6.00000000
H 8.48700000 12.00000000 6.00000000
H 7.24350000 14.15380518 6.00000000
H 4.75650000 14.15380518 6.00000000
H 3.51300000 12.00000000 6.00000000
H 4.75650000 9.84619482 6.00000000
H 7.24350000 9.84619482 6.00000000
C 7.39700000 12.00000000 12.00000000
C 6.69850000 13.20983749 12.00000000
C 5.30150000 13.20983749 12.00000000
C 4.60300000 12.00000000 12.00000000
C 5.30150000 10.79016251 12.00000000
C 6.69850000 10.79016251 12.00000000
H 8.48700000 12.00000000 12.00000000
H 7.24350000 14.15380518 12.00000000
H 4.75650000 14.15380518 12.00000000
H 3.51300000 12.00000000 12.00000000
H 4.75650000 9.84619482 12.00000000
H 7.24350000 9.84619482 12.00000000
C 7.39700000 12.00000000 18.00000000
C 6.69850000 13.20983749 18.00000000
C 5.30150000 13.20983749 18.00000000
C 4.60300000 12.00000000 18.00000000
C 5.30150000 10.79016251 18.00000000
C 6.69850000 10.79016251 18.00000000
H 8.48700000 12.00000000 18.00000000
H 7.24350000 14.15380518 18.00000000
H 4.75650000 14.15380518 18.00000000
H 3.51300000 12.00000000 18.00000000
H 4.75650000 9.84619482 18.00000000
H 7.24350000 9.84619482 18.00000000
C 7.39700000 18.00000000 0.00000000
C 6.69850000 19.20983749 0.00000000
C 5.30150000 19.20983749 0.00000000
C 4.60300000 18.00000000 0.00000000
C 5.30150000 16.79016251 0.00000000
C 6.69850000 16.79016251 0.00000000
H 8.48700000 18.00000000 0.00000000
H 7.24350000 20.15380518 0.00000000
H 4.75650000 20.15380518 0.00000000
H 3.51300000 18.00000000 0.00000000
H 4.75650000 15.84619482 0.00000000
H 7.24350000 15.84619482 0.00000000
C 7.39700000 18.00000000 6.00000000
C 6.69850000 19.20983749 6.00000000
C 5.30150000 19.20983749 6.00000000
C 4.60300000 18.00000000 6.00000000
C 5.30150000 16.79016251 6.00000000
C 6.69850000 16.79016251 6.00000000
H 8.48700000 18.00000000 6.00000000
H 7.24350000 20.15380518 6.00000000
H 4.75650000 20.15380518 6.00000000
H 3.51300000 18.00000000 6.00000000
H 4.75650000 15.84619482 6.00000000
H 7.24350000 15.84619482 6.00000000
C 7.39700000 18.00000000 12.00000000
C 6.69850000 19.20983749 12.00000000
C 5.30150000 19.20983749 12.00000000
C 4.60300000 18.00000000 12.00000000
C 5.30150000 16.79016251 12.00000000
C 6.69850000 16.79016251 12.00000000
H 8.48700000 18.00000000 12.00000000
H 7.24350000 20.15380518 12.00000000
H 4.75650000 20.15380518 12.00000000
H 3.51300000 18.00000000 12.00000000
H 4.75650000 15.84619482 12.00000000
H 7.24350000 15.84619482 12.00000000
C 7.39700000 18.00000000 18.00000000
C 6.69850000 19.20983749 18.00000000
C 5.30150000 19.20983749 18.00000000
C 4.60300000 18.00000000 18.00000000
C 5.30150000 16.79016251 18.00000000
C 6.69850000 16.79016251 18.00000000
H 8.48700000 18.00000000 18.00000000
H 7.24350000 20.15380518 18.00000000
H 4.75650000 20.15380518 18.00000000
H 3.51300000 18.00000000 18.00000000
H 4.75650000 15.84619482 18.00000000
H 7.24350000 15.84619482 18.00000000
C 13.39700000 0.00000000 0.00000000
C 12.69850000 1.20983749 0.00000000
C 11.30150000 1.20983749 0.00000000
C 10.60300000 0.00000000 0.00000000
C 11.30150000 -1.20983749 0.00000000
C 12.69850000 -1.20983749 0.00000000
H 14.48700000 0.00000000 0.00000000
H 13.24350000 2.15380518 0.00000000
H 10.75650000 2.15380518 0.00000000
H 9.51300000 0.00000000 0.00000000
H 10.75650000 -2.15380518 0.00000000
H 13.24350000 -2.15380518 0.00000000
C 13.39700000 0.00000000 6.00000000
C 12.69850000 1.20983749 6.00000000
C 11.30150000 1.20983749 6.00000000
C 10.60300000 0.00000000 6.00000000
C 11.30150000 -1.20983749 6.00000000
C 12.69850000 -1.20983749 6.00000000
H 14.48700000 0.00000000 6.00000000
H 13.24350000 2.15380518 6.00000000
H 10.75650000 2.15380518 6.00000000
H 9.51300000 0.00000000 6.00000000
H 10.75650000 -2.15380518 6.00000000
H 13.24350000 -2.15380518 6.00000000
C 13.39700000 0.00000000 12.00000000
C 12.69850000 1.20983749 12.00000000
C 11.30150000 1.20983749 12.00000000
C 10.60300000 0.00000000 12.00000000
C 11.30150000 -1.20983749 12.00000000
C 12.69850000 -1.20983749 12.00000000
H 14.48700000 0.00000000 12.00000000
H 13.24350000 2.15380518 12.00000000
H 10.75650000 2.15380518 12.00000000
H 9.51300000 0.00000000 12.00000000
H 10.75650000 -2.15380518 12.00000000
H 13.24350000 -2.15380518 12.00000000
C 13.39700000 0.00000000 18.00000000
C 12.69850000 1.20983749 18.00000000
C 11.30150000 1.20983749 18.00000000
C 10.60300000 0.00000000 18.00000000
C 11.30150000 -1.20983749 18.00000000
C 12.69850000 -1.20983749 18.00000000
H 14.48700000 0.00000000 18.00000000
H 13.24350000 2.15380518 18.00000000
H 10.75650000 2.15380518 18.00000000
H 9.51300000 0.00000000 18.00000000
H 10.75650000 -2.15380518 18.00000000
H 13.24350000 -2.15380518 18.00000000
C 13.39700000 6.00000000 0.00000000
C 12.69850000 7.20983749 0.00000000
C 11.30150000 7.20983749 0.00000000
C 10.60300000 6.00000000 0.00000000
C 11.30150000 4.79016251 0.00000000
C 12.69850000 4.79016251 0.00000000
H 14.48700000 6.00000000 0.00000000
H 13.24350000 8.15380518 0.00000000
H 10.75650000 8.15380518 0.00000000
H 9.51300000 6.00000000 0.00000000
H 10.75650000 3.84619482 0.00000000
H 13.24350000 3.84619482 0.00000000
C 13.39700000 6.00000000 6.00000000
C 12.69850000 7.20983749 6.00000000
C 11.30150000 7.20983749 6.00000000
C 10.60300000 6.00000000 6.00000000
C 11.30150000 4.79016251 6.00000000
C 12.69850000 4.79016251 6.00000000
H 14.48700000 6.00000000 6.00000000
H 13.24350000 8.15380518 6.00000000
H 10.75650000 8.15380518 6.00000000
H 9.51300000 6.00000000 6.00000000
H 10.75650000 3.84619482 6.00000000
H 13.24350000 3.84619482 6.00000000
C 13.39700000 6.00000000 12.00000000
C 12.69850000 7.20983749 12.00000000
C 11.30150000 7.20983749 12.00000000
C 10.60300000 6.00000000 12.00000000
C 11.30150000 4.79016251 12.00000000
C 12.69850000 4.79016251 12.00000000
H 14.48700000 6.00000000 12.00000000
H 13.24350000 8.15380518 12.00000000
H 10.75650000 8.15380518 12.00000000
H 9.51300000 6.00000000 12.00000000
H 10.75650000 3.84619482 12.00000000
H 13.24350000 3.84619482 12.00000000
C 13.39700000 6.00000000 18.00000000
C 12.69850000 7.20983749 18.00000000
C 11.30150000 7.20983749 18.00000000
C 10.60300000 6.00000000 18.00000000
C 11.30150000 4.79016251 18.00000000
C 12.69850000 4.79016251 18.00000000
H 14.48700000 6.00000000 18.00000000
H 13.24350000 8.15380518 18.00000000
H 10.75650000 8.15380518 18.00000000
H 9.51300000 6.00000000 18.00000000
H 10.75650000 3.84619482 18.00000000
H 13.24350000 3.84619482 18.00000000
C 13.39700000 12.00000000 0.00000000
C 12.69850000 13.20983749 0.00000000
C 11.30150000 13.20983749 0.00000000
C 10.60300000 12.00000000 0.00000000
C 11.30150000 10.79016251 0.00000000
C 12.69850000 10.79016251 0.00000000
H 14.48700000 12.00000000 0.00000000
H 13.24350000 14.15380518 0.00000000
H 10.75650000 14.15380518 0.00000000
H 9.51300000 12.00000000 0.00000000
H 10.75650000 9.84619482 0.00000000
H 13.24350000 9.84619482 0.00000000
C 13.39700000 12.00000000 6.00000000
C 12.69850000 13.20983749 6.00000000
C 11.30150000 13.20983749 6.00000000
C 10.60300000 12.00000000 6.00000000
C 11.30150000 10.79016251 6.00000000
C 12.69850000 10.79016251 6.00000000
H 14.48700000 12.00000000 6.00000000
H 13.24350000 14.15380518 6.00000000
H 10.75650000 14.15380518 6.00000000
H 9.51300000 12.00000000 6.00000000
H 10.75650000 9.84619482 6.00000000
H 13.24350000 9.84619482 6.00000000
C 13.39700000 12.00000000 12.00000000
C 12.69850000 13.20983749 12.00000000
C 11.30150000 13.20983749 12.00000000
C 10.60300000 12.00000000 12.00000000
C 11.30150000 10.79016251 12.00000000
C 12.69850000 10.79016251 12.00000000
H 14.48700000 12.00000000 12.00000000
H 13.24350000 14.15380518 12.00000000
H 10.75650000 14.15380518 12.00000000
H 9.51300000 12.00000000 12.00000000
H 10.75650000 9.84619482 12.00000000
H 13.24350000 9.84619482 12.00000000
C 13.39700000 12.00000000 18.00000000
C 12.69850000 13.20983749 18.00000000
C 11.30150000 13.20983749 18.00000000
C 10.60300000 12.00000000 18.00000000
C 11.30150000 10.79016251 18.00000000
C 12.69850000 10.79016251 18.00000000
H 14.48700000 12.00000000 18.00000000
H 13.24350000 14.15380518 18.00000000
H 10.75650000 14.15380518 18.00000000
H 9.51300000 12.00000000 18.00000000
H 10.75650000 9.84619482 18.00000000
H 13.24350000 9.84619482 18.00000000
C 13.39700000 18.00000000 0.00000000
C 12.69850000 19.20983749 0.00000000
C 11.30150000 19.20983749 0.00000000
C 10.60300000 18.00000000 0.00000000
C 11.30150000 16.79016251 0.00000000
C 12.69850000 16.79016251 0.00000000
H 14.48700000 18.00000000 0.00000000
H 13.24350000 20.15380518 0.00000000
H 10.75650000 20.15380518 0.00000000
H 9.51300000 18.00000000 0.00000000
H 10.75650000 15.84619482 0.00000000
H 13.24350000 15.84619482 0.00000000
C 13.39700000 18.00000000 6.00000000
C 12.69850000 19.20983749 6.00000000
C 11.30150000 19.20983749 6.00000000
C 10.60300000 18.00000000 6.00000000
C 11.30150000 16.79016251 6.00000000
C 12.69850000 16.79016251 6.00000000
H 14.48700000 18.00000000 6.00000000
H 13.24350000 20.15380518 6.00000000
H 10.75650000 20.15380518 6.00000000
H 9.51300000 18.00000000 6.00000000
H 10.75650000 15.84619482 6.00000000
H 13.24350000 15.84619482 6.00000000
C 13.39700000 18.00000000 12.00000000
C 12.69850000 19.20983749 12.00000000
C 11.30150000 19.20983749 12.00000000
C 10.60300000 18.00000000 12.00000000
C 11.30150000 16.79016251 12.00000000
C 12.69850000 16.79016251 12.00000000
H 14.48700000 18.00000000 12.00000000
H 13.24350000 20.15380518 12.00000000
H 10.75650000 20.15380518 12.00000000
H 9.51300000 18.00000000 12.00000000
H 10.75650000 15.84619482 12.00000000
H 13.24350000 15.84619482 12.00000000
C 13.39700000 18.00000000 18.00000000
C 12.69850000 19.20983749 18.00000000
C 11.30150000 19.20983749 18.00000000
C 10.60300000 18.00000000 18.00000000
C 11.30150000 16.79016251 18.00000000
C 12.69850000 16.79016251 18.00000000
H 14.48700000 18.00000000 18.00000000
H 13.24350000 20.15380518 18.00000000
H 10.75650000 20.15380518 18.00000000
H 9.51300000 18.00000000 18.00000000
H 10.75650000 15.84619482 18.00000000
H 13.24350000 15.84619482 18.00000000
C 19.39700000 0.00000000 0.00000000
C 18.69850000 1.20983749 0.00000000
C 17.30150000 1.20983749 0.00000000
C 16.60300000 0.00000000 0.00000000
C 17.30150000 -1.20983749 0.00000000
C 18.69850000 -1.20983749 0.00000000
H 20.48700000 0.00000000 0.00000000
H 19.24350000 2.15380518 0.00000000
H 16.75650000 2.15380518 0.00000000
H 15.51300000 0.00000000 0.00000000
H 16.75650000 -2.15380518 0.00000000
H 19.24350000 -2.15380518 0.00000000
C 19.39700000 0.00000000 6.00000000
C 18.69850000 1.20983749 6.00000000
C 17.30150000 1.20983749 6.00000000
C 16.60300000 0.00000000 6.00000000
C 17.30150000 -1.20983749 6.00000000
C 18.69850000 -1.20983749 6.00000000
H 20.48700000 0.00000000 6.00000000
H 19.24350000 2.15380518 6.00000000
H 16.75650000 2.15380518 6.00000000
H 15.51300000 0.00000000 6.00000000
H 16.75650000 -2.15380518 6.00000000
H 19.24350000 -2.15380518 6.00000000
C 19.39700000 0.00000000 12.00000000
C 18.69850000 1.20983749 12.00000000
C 17.30150000 1.20983749 12.00000000
C 16.60300000 0.00000000 12.00000000
C 17.30150000 -1.20983749 12.00000000
C 18.69850000 -1.20983749 12.00000000
H 20.48700000 0.00000000 12.00000000
H 19.24350000 2.15380518 12.00000000
H 16.75650000 2.15380518 12.00000000
H 15.51300000 0.00000000 12.00000000
H 16.75650000 -2.15380518 12.00000000
H 19.24350000 -2.15380518 12.00000000
C 19.39700000 0.00000000 18.00000000
C 18.69850000 1.20983749 18.00000000
C 17.30150000 1.20983749 18.00000000
C 16.60300000 0.00000000 18.00000000
C 17.30150000 -1.20983749 18.00000000
C 18.69850000 -1.20983749 18.00000000
H 20.48700000 0.00000000 18.00000000
H 19.24350000 2.15380518 18.00000000
H 16.75650000 2.15380518 18.00000000
H 15.51300000 0.00000000 18.00000000
H 16.75650000 -2.15380518 18.00000000
H 19.24350000 -2.15380518 18.00000000
C 19.39700000 6.00000000 0.00000000
C 18.69850000 7.20983749 0.00000000
C 17.30150000 7.20983749 0.00000000
C 16.60300000 6.00000000 0.00000000
C 17.30150000 4.79016251 0.00000000
C 18.69850000 4.79016251 0.00000000
H 20.48700000 6.00000000 0.00000000
H 19.24350000 8.15380518 0.00000000
H 16.75650000 8.15380518 0.00000000
H 15.51300000 6.00000000 0.00000000
H 16.75650000 3.84619482 0.00000000
H 19.24350000 3.84619482 0.00000000
C 19.39700000 6.00000000 6.00000000
C 18.69850000 7.20983749 6.00000000
C 17.30150000 7.20983749 6.00000000
C 16.60300000 6.00000000 6.00000000
C 17.30150000 4.79016251 6.00000000
C 18.69850000 4.79016251 6.00000000
H 20.48700000 6.00000000 6.00000000
H 19.24350000 8.15380518 6.00000000
H 16.75650000 8.15380518 6.00000000
H 15.51300000 6.00000000 6.00000000
H 16.75650000 3.84619482 6.00000000
H 19.24350000 3.84619482 6.00000000
C 19.39700000 6.00000000 12.00000000
C 18.69850000 7.20983749 12.00000000
C 17.30150000 7.20983749 12.00000000
C 16.60300000 6.00000000 12.00000000
C 17.30150000 4.79016251 12.00000000
C 18.69850000 4.79016251 12.00000000
H 20.48700000 6.00000000 12.00000000
H 19.24350000 8.15380518 12.00000000
H 16.75650000 8.15380518 12.00000000
H 15.51300000 6.00000000 12.00000000
H 16.75650000 3.84619482 12.00000000
H 19.24350000 3.84619482 12.00000000
C 19.39700000 6.00000000 18.00000000
C 18.69850000 7.20983749 18.00000000
C 17.30150000 7.20983749 18.00000000
C 16.60300000 6.00000000 18.00000000
C 17.30150000 4.79016251 18.00000000
C 18.69850000 4.79016251 18.00000000
H 20.48700000 6.00000000 18.00000000
H 19.24350000 8.15380518 18.00000000
H 16.75650000 8.15380518 18.00000000
H 15.51300000 6.00000000 18.00000000
H 16.75650000 3.84619482 18.00000000
H 19.24350000 3.84619482 18.00000000
C 19.39700000 12.00000000 0.00000000
C 18.69850000 13.20983749 0.00000000
C 17.30150000 13.20983749 0.00000000
C 16.60300000 12.00000000 0.00000000
C 17.30150000 10.79016251 0.00000000
C 18.69850000 10.79016251 0.00000000
H 20.48700000 12.00000000 0.00000000
H 19.24350000 14.15380518 0.00000000
H 16.75650000 14.15380518 0.00000000
H 15.51300000 12.00000000 0.00000000
H 16.75650000 9.84619482 0.00000000
H 19.24350000 9.84619482 0.00000000
C 19.39700000 12.00000000 6.00000000
C 18.69850000 13.20983749 6.00000000
C 17.30150000 13.20983749 6.00000000
C 16.60300000 12.00000000 6.00000000
C 17.30150000 10.79016251 6.00000000
C 18.69850000 10.79016251 6.00000000
H 20.48700000 12.00000000 6.00000000
H 19.24350000 14.15380518 6.00000000
H 16.75650000 14.15380518 6.00000000
H 15.51300000 12.00000000 6.00000000
H 16.75650000 9.84619482 6.00000000
H 19.24350000 9.84619482 6.00000000
C 19.39700000 12.00000000 12.00000000
C 18.69850000 13.20983749 12.00000000
C 17.30150000 13.20983749 12.00000000
C 16.60300000 12.00000000 12.00000000
C 17.30150000 10.79016251 12.00000000
C 18.69850000 10.79016251 12.00000000
H 20.48700000 12.00000000 12.00000000
H 19.24350000 14.15380518 12.00000000
H 16.75650000 14.15380518 12.00000000
H 15.51300000 12.00000000 12.00000000
H 16.75650000 9.84619482 12.00000000
H 19.24350000 9.84619482 12.00000000
C 19.39700000 12.00000000 18.00000000
C 18.69850000 13.20983749 18.00000000
C 17.30150000 13.20983749 18.00000000
C 16.60300000 12.00000000 18.00000000
C 17.30150000 10.79016251 18.00000000
C 18.69850000 10.79016251 18.00000000
H 20.48700000 12.00000000 18.00000000
H 19.24350000 14.15380518 18.00000000
H 16.75650000 14.15380518 18.00000000
H 15.51300000 12.00000000 18.00000000
H 16.75650000 9.84619482 18.00000000
H 19.24350000 9.84619482 18.00000000
C 19.39700000 18.00000000 0.00000000
C 18.69850000 19.20983749 0.00000000
C 17.30150000 19.20983749 0.00000000
C 16.60300000 18.00000000 0.00000000
C 17.30150000 16.79016251 0.00000000
C 18.69850000 16.79016251 0.00000000
H 20.48700000 18.00000000 0.00000000
H 19.24350000 20.15380518 0.00000000
H 16.75650000 20.15380518 0.00000000
H 15.51300000 18.00000000 0.00000000
H 16.75650000 15.84619482 0.00000000
H 19.24350000 15.84619482 0.00000000
C 19.39700000 18.00000000 6.00000000
C 18.69850000 19.20983749 6.00000000
C 17.30150000 19.20983749 6.00000000
C 16.60300000 18.00000000 6.00000000
C 17.30150000 16.79016251 6.00000000
C 18.69850000 16.79016251 6.00000000
H 20.48700000 18.00000000 6.00000000
H 19.24350000 20.15380518 6.00000000
H 16.75650000 20.15380518 6.00000000
H 15.51300000 18.00000000 6.00000000
H 16.75650000 15.84619482 6.00000000
H 19.24350000 15.84619482 6.00000000
C 19.39700000 18.00000000 12.00000000
C 18.69850000 19.20983749 12.00000000
C 17.30150000 19.20983749 12.00000000
C 16.60300000 18.00000000 12.00000000
C 17.30150000 16.79016251 12.00000000
C 18.69850000 16.79016251 12.00000000
H 20.48700000 18.00000000 12.00000000
H 19.24350000 20.15380518 12.00000000
H 16.75650000 20.15380518 12.00000000
H 15.51300000 18.00000000 12.00000000
H 16.75650000 15.84619482 12.00000000
H 19.24350000 15.84619482 12.00000000
C 19.39700000 18.00000000 18.00000000
C 18.69850000 19.20983749 18.00000000
C 17.30150000 19.20983749 18.00000000
C 16.60300000 18.00000000 18.00000000
C 17.30150000 16.79016251 18.00000000
C 18.69850000 16.79016251 18.00000000
H 20.48700000 18.00000000 18.00000000
H 19.24350000 20.15380518 18.00000000
H 16.75650000 20.15380518 18.00000000
H 15.51300000 18.00000000 18.00000000
H 16.75650000 15.84619482 18.00000000
H 19.24350000 15.84619482 18.00000000
